MST03
Position Depot: Center
Horizon for Depot: Small
Position of customers: Mixt
Distribution of the demand: Medium
Width of time windows: Tight
Distribution of the service: Small

VEHICLE 
NUMBER 	 CAPACITY 
 8 	 	 270 
 
CUSTOMER
CUST NO. 	 XCOORD.  	 YCOORD. 	 DEMAND 	 READY TIME 	 DUE DATE 	 SERVICE TIME 
 0 	 	 500 	 	 500 	 	 0 	 	 0 	 	 1970 	 	 0 
  1 	 	 175 	 	 687 	 	 7 	 	 406 	 	 523 	 	 97 
  2 	 	 966 	 	 788 	 	 53 	 	 418 	 	 602 	 	 66 
  3 	 	 943 	 	 538 	 	 63 	 	 308 	 	 489 	 	 76 
  4 	 	 949 	 	 802 	 	 2 	 	 527 	 	 595 	 	 67 
  5 	 	 987 	 	 469 	 	 59 	 	 1838 	 	 1970 	 	 80 
  6 	 	 137 	 	 657 	 	 74 	 	 701 	 	 895 	 	 58 
  7 	 	 819 	 	 599 	 	 6 	 	 566 	 	 698 	 	 83 
  8 	 	 990 	 	 539 	 	 6 	 	 466 	 	 540 	 	 57 
  9 	 	 151 	 	 707 	 	 6 	 	 897 	 	 1018 	 	 96 
  10 	 	 189 	 	 497 	 	 85 	 	 1522 	 	 1656 	 	 51 
  11 	 	 935 	 	 795 	 	 6 	 	 962 	 	 1053 	 	 88 
  12 	 	 820 	 	 672 	 	 3 	 	 309 	 	 440 	 	 95 
  13 	 	 985 	 	 519 	 	 2 	 	 621 	 	 706 	 	 63 
  14 	 	 999 	 	 766 	 	 2 	 	 543 	 	 622 	 	 62 
  15 	 	 847 	 	 567 	 	 8 	 	 1244 	 	 1372 	 	 67 
  16 	 	 980 	 	 757 	 	 90 	 	 1032 	 	 1224 	 	 93 
  17 	 	 948 	 	 780 	 	 3 	 	 796 	 	 909 	 	 88 
  18 	 	 745 	 	 715 	 	 8 	 	 286 	 	 358 	 	 51 
  19 	 	 153 	 	 662 	 	 10 	 	 1051 	 	 1210 	 	 71 
  20 	 	 916 	 	 782 	 	 1 	 	 698 	 	 844 	 	 73 
  21 	 	 978 	 	 590 	 	 73 	 	 1305 	 	 1472 	 	 82 
  22 	 	 920 	 	 678 	 	 63 	 	 302 	 	 501 	 	 84 
  23 	 	 850 	 	 492 	 	 5 	 	 632 	 	 754 	 	 51 
  24 	 	 157 	 	 661 	 	 9 	 	 1358 	 	 1433 	 	 68 
  25 	 	 180 	 	 707 	 	 2 	 	 1192 	 	 1287 	 	 74 
  26 	 	 145 	 	 668 	 	 64 	 	 1808 	 	 1944 	 	 79 
  27 	 	 899 	 	 891 	 	 5 	 	 649 	 	 755 	 	 67 
  28 	 	 959 	 	 787 	 	 7 	 	 713 	 	 767 	 	 87 
  29 	 	 977 	 	 780 	 	 8 	 	 1826 	 	 1897 	 	 69 
  30 	 	 213 	 	 700 	 	 9 	 	 248 	 	 384 	 	 100 
  31 	 	 162 	 	 752 	 	 3 	 	 758 	 	 860 	 	 100 
  32 	 	 83 	 	 677 	 	 10 	 	 343 	 	 498 	 	 60 
  33 	 	 233 	 	 652 	 	 3 	 	 831 	 	 927 	 	 99 
  34 	 	 976 	 	 720 	 	 2 	 	 1238 	 	 1294 	 	 64 
  35 	 	 980 	 	 822 	 	 2 	 	 454 	 	 635 	 	 96 
  36 	 	 954 	 	 776 	 	 9 	 	 1040 	 	 1231 	 	 57 
  37 	 	 114 	 	 672 	 	 2 	 	 400 	 	 489 	 	 68 
  38 	 	 965 	 	 767 	 	 93 	 	 841 	 	 992 	 	 65 
  39 	 	 966 	 	 774 	 	 51 	 	 449 	 	 594 	 	 77 
  40 	 	 929 	 	 478 	 	 8 	 	 273 	 	 472 	 	 74 
  41 	 	 275 	 	 643 	 	 86 	 	 223 	 	 293 	 	 64 
  42 	 	 924 	 	 760 	 	 10 	 	 555 	 	 656 	 	 82 
  43 	 	 198 	 	 705 	 	 8 	 	 552 	 	 674 	 	 53 
  44 	 	 956 	 	 807 	 	 6 	 	 472 	 	 604 	 	 87 
  45 	 	 804 	 	 579 	 	 75 	 	 1850 	 	 1905 	 	 72 
  46 	 	 905 	 	 835 	 	 10 	 	 963 	 	 1027 	 	 92 
  47 	 	 898 	 	 655 	 	 4 	 	 1407 	 	 1580 	 	 50 
  48 	 	 137 	 	 673 	 	 1 	 	 1790 	 	 1848 	 	 58 
  49 	 	 233 	 	 703 	 	 52 	 	 474 	 	 561 	 	 73 
  50 	 	 874 	 	 792 	 	 79 	 	 879 	 	 950 	 	 78 
  51 	 	 753 	 	 920 	 	 5 	 	 483 	 	 539 	 	 52 
  52 	 	 130 	 	 891 	 	 6 	 	 1309 	 	 1369 	 	 60 
  53 	 	 133 	 	 3 	 	 4 	 	 1636 	 	 1830 	 	 77 
  54 	 	 299 	 	 101 	 	 1 	 	 1620 	 	 1726 	 	 62 
  55 	 	 772 	 	 7 	 	 3 	 	 478 	 	 619 	 	 61 
  56 	 	 823 	 	 898 	 	 7 	 	 1134 	 	 1332 	 	 73 
  57 	 	 736 	 	 695 	 	 99 	 	 1411 	 	 1493 	 	 68 
  58 	 	 414 	 	 528 	 	 54 	 	 423 	 	 475 	 	 72 
  59 	 	 76 	 	 391 	 	 2 	 	 1725 	 	 1868 	 	 52 
  60 	 	 869 	 	 976 	 	 54 	 	 1704 	 	 1808 	 	 59 
  61 	 	 2 	 	 887 	 	 5 	 	 593 	 	 693 	 	 77 
  62 	 	 221 	 	 614 	 	 1 	 	 1581 	 	 1775 	 	 56 
  63 	 	 584 	 	 114 	 	 8 	 	 321 	 	 434 	 	 55 
  64 	 	 907 	 	 956 	 	 2 	 	 524 	 	 672 	 	 62 
  65 	 	 594 	 	 681 	 	 7 	 	 76 	 	 229 	 	 57 
  66 	 	 551 	 	 939 	 	 8 	 	 1305 	 	 1473 	 	 80 
  67 	 	 670 	 	 984 	 	 64 	 	 1269 	 	 1366 	 	 81 
  68 	 	 129 	 	 432 	 	 68 	 	 1160 	 	 1271 	 	 82 
  69 	 	 751 	 	 84 	 	 6 	 	 1883 	 	 1970 	 	 96 
  70 	 	 450 	 	 680 	 	 86 	 	 197 	 	 310 	 	 93 
  71 	 	 438 	 	 407 	 	 6 	 	 982 	 	 1164 	 	 74 
  72 	 	 203 	 	 482 	 	 77 	 	 1441 	 	 1602 	 	 58 
  73 	 	 226 	 	 573 	 	 7 	 	 353 	 	 467 	 	 69 
  74 	 	 266 	 	 79 	 	 4 	 	 464 	 	 529 	 	 56 
  75 	 	 486 	 	 263 	 	 2 	 	 1069 	 	 1142 	 	 92 
  76 	 	 687 	 	 470 	 	 5 	 	 1387 	 	 1583 	 	 94 
  77 	 	 551 	 	 739 	 	 2 	 	 1250 	 	 1431 	 	 71 
  78 	 	 55 	 	 132 	 	 10 	 	 1509 	 	 1571 	 	 90 
  79 	 	 692 	 	 235 	 	 5 	 	 1301 	 	 1391 	 	 76 
  80 	 	 705 	 	 886 	 	 8 	 	 1405 	 	 1513 	 	 64 
  81 	 	 352 	 	 653 	 	 8 	 	 1582 	 	 1781 	 	 82 
  82 	 	 507 	 	 707 	 	 10 	 	 628 	 	 735 	 	 69 
  83 	 	 0 	 	 933 	 	 6 	 	 733 	 	 888 	 	 53 
  84 	 	 234 	 	 198 	 	 8 	 	 250 	 	 442 	 	 72 
  85 	 	 125 	 	 24 	 	 1 	 	 613 	 	 666 	 	 54 
  86 	 	 358 	 	 663 	 	 6 	 	 304 	 	 483 	 	 67 
  87 	 	 212 	 	 509 	 	 6 	 	 1116 	 	 1309 	 	 77 
  88 	 	 730 	 	 857 	 	 10 	 	 306 	 	 473 	 	 68 
  89 	 	 324 	 	 714 	 	 96 	 	 1828 	 	 1970 	 	 66 
  90 	 	 971 	 	 650 	 	 8 	 	 1289 	 	 1342 	 	 58 
  91 	 	 445 	 	 773 	 	 10 	 	 513 	 	 605 	 	 67 
  92 	 	 983 	 	 94 	 	 4 	 	 1677 	 	 1804 	 	 100 
  93 	 	 342 	 	 469 	 	 2 	 	 1196 	 	 1333 	 	 80 
  94 	 	 166 	 	 249 	 	 3 	 	 1004 	 	 1063 	 	 93 
  95 	 	 185 	 	 16 	 	 89 	 	 625 	 	 783 	 	 87 
  96 	 	 517 	 	 302 	 	 10 	 	 119 	 	 218 	 	 58 
  97 	 	 63 	 	 711 	 	 9 	 	 429 	 	 533 	 	 85 
  98 	 	 105 	 	 999 	 	 75 	 	 1723 	 	 1923 	 	 85 
  99 	 	 450 	 	 615 	 	 10 	 	 -14 	 	 137 	 	 63 
  100 	 	 400 	 	 549 	 	 4 	 	 576 	 	 655 	 	 66 
 